Function: get_partitions took 3.0279159545898438e-05 seconds
Function: map_flows_partitions took 4.5299530029296875e-06 seconds
Building model with:
3 devices, 10 partitions and 1 flows
Using license file /home/anup/gurobi.lic
Academic license - for non-commercial use only
Function: MIP.add_frac_mem_var took 0.00036597251892089844 seconds
Function: MIP.add_coverage_constraints took 0.0003364086151123047 seconds
Function: MIP.add_accuracy_constraints took 0.0010883808135986328 seconds
Function: MIP.add_capacity_constraints took 0.0006651878356933594 seconds
Changed value of parameter TimeLimit to 120.0
   Prev: inf  Min: 0.0  Max: inf  Default: inf
Changed value of parameter NonConvex to 2
   Prev: -1  Min: -1  Max: 2  Default: -1
Parameter NonConvex unchanged
   Value: 2  Min: -1  Max: 2  Default: -1
--------------------------------------------------
Starting model update
Model update took: 6.270408630371094e-05 s
--------------------------------------------------
Starting model optimize
Gurobi Optimizer version 9.0.0 build v9.0.0rc2 (linux64)
Optimize a model with 56 rows, 89 columns and 184 nonzeros
Model fingerprint: 0x907bcf64
Model has 6 quadratic constraints
Model has 5 general constraints
Variable types: 55 continuous, 34 integer (30 binary)
Coefficient statistics:
  Matrix range     [1e-04, 8e+03]
  QMatrix range    [1e+00, 1e+00]
  QLMatrix range   [1e+00, 1e+00]
  Objective range  [1e+00, 1e+00]
  Bounds range     [1e+00, 3e+04]
  RHS range        [1e+00, 2e+01]

---------------------------------------------------------------------------
Multi-objectives: starting optimization with 2 objectives ... 
---------------------------------------------------------------------------

Multi-objectives: applying initial presolve ...
---------------------------------------------------------------------------

Presolve removed 23 rows and 16 columns
Presolve time: 0.00s
Presolved: 57 rows and 74 columns
---------------------------------------------------------------------------

Multi-objectives: optimize objective 1 (ns) ...
---------------------------------------------------------------------------

Presolve removed 13 rows and 23 columns
Presolve time: 0.00s
Presolved: 68 rows, 52 columns, 180 nonzeros
Presolved model has 6 SOS constraint(s)
Presolved model has 6 bilinear constraint(s)
Variable types: 28 continuous, 24 integer (14 binary)

Root relaxation: objective 1.020408e+01, 22 iterations, 0.00 seconds

    Nodes    |    Current Node    |     Objective Bounds      |     Work
 Expl Unexpl |  Obj  Depth IntInf | Incumbent    BestBd   Gap | It/Node Time

     0     0   10.20408    0    6          -   10.20408      -     -    0s
     0     0   10.20408    0    6          -   10.20408      -     -    0s
     0     0   10.20408    0    8          -   10.20408      -     -    0s
     0     0   10.20408    0   13          -   10.20408      -     -    0s
     0     0   10.20408    0    9          -   10.20408      -     -    0s
     0     0   10.20408    0    9          -   10.20408      -     -    0s
     0     2   10.26655    0    9          -   10.26655      -     -    0s
H    3     6                      28.5714286   10.26655  64.1%   5.3    0s
H    6     6                      17.8571429   10.26655  42.5%   3.5    0s
*   38    14               9      13.0958659   11.42857  12.7%   3.8    0s

Cutting planes:
  Implied bound: 2
  MIR: 1
  Flow cover: 4
  RLT: 2

Explored 61 nodes (271 simplex iterations) in 0.02 seconds
Thread count was 8 (of 8 available processors)

Solution count 3: 13.0959 17.8571 28.5714 

Optimal solution found (tolerance 1.00e-04)
Best objective 1.309586592709e+01, best bound 1.309586592709e+01, gap 0.0000%
---------------------------------------------------------------------------

Multi-objectives: optimize objective 2 (res) ...
---------------------------------------------------------------------------


Loaded user MIP start with objective 144.884

Presolve removed 8 rows and 9 columns
Presolve time: 0.00s
Presolved: 74 rows, 65 columns, 225 nonzeros
Presolved model has 6 bilinear constraint(s)
Variable types: 27 continuous, 38 integer (32 binary)

Root relaxation: objective 9.290069e+01, 39 iterations, 0.00 seconds

    Nodes    |    Current Node    |     Objective Bounds      |     Work
 Expl Unexpl |  Obj  Depth IntInf | Incumbent    BestBd   Gap | It/Node Time

     0     0   92.90069    0    6  144.88370   92.90069  35.9%     -    0s
     0     0   92.90069    0   12  144.88370   92.90069  35.9%     -    0s
     0     0   92.90069    0   10  144.88370   92.90069  35.9%     -    0s
     0     0   94.06613    0   14  144.88370   94.06613  35.1%     -    0s
     0     0   94.76789    0   16  144.88370   94.76789  34.6%     -    0s
     0     0  104.58980    0   13  144.88370  104.58980  27.8%     -    0s
     0     0  104.58993    0   13  144.88370  104.58993  27.8%     -    0s
     0     0  106.75298    0   13  144.88370  106.75298  26.3%     -    0s
     0     0  106.75298    0   13  144.88370  106.75298  26.3%     -    0s
     0     0  109.04470    0   12  144.88370  109.04470  24.7%     -    0s
     0     0  109.46548    0   12  144.88370  109.46548  24.4%     -    0s
     0     0  112.50641    0   14  144.88370  112.50641  22.3%     -    0s
H    0     0                     144.6266567  112.50641  22.2%     -    0s
     0     0  112.86056    0   14  144.62666  112.86056  22.0%     -    0s
     0     0  114.57363    0   16  144.62666  114.57363  20.8%     -    0s
     0     0  114.57363    0    8  144.62666  114.57363  20.8%     -    0s
H    0     0                     124.8836953  114.57363  8.26%     -    0s
     0     2  114.57363    0    8  124.88370  114.57363  8.26%     -    0s

Cutting planes:
  MIR: 4
  Flow cover: 2
  RLT: 3

Explored 9 nodes (185 simplex iterations) in 0.08 seconds
Thread count was 8 (of 8 available processors)

Solution count 3: 124.884 144.627 144.884 

Optimal solution found (tolerance 1.00e-04)
Best objective 1.248836952845e+02, best bound 1.248836952845e+02, gap 0.0000%

---------------------------------------------------------------------------
Multi-objectives: solved in 0.08 seconds, solution count 5

Model optimize took: 0.07599377632141113 seconds
--------------------------------------------------

Solution quality statistics for model Netmon :
  Maximum violation:
    Bound       : 0.00000000e+00
    Constraint  : 5.68434189e-14
    Integrality : 0.00000000e+00

Throughput: 76.35997539739428 Mpps, ns per packet: 13.095865927087821
Resources: 124.88369528452556
Used Cores: 12.0, Total CPUS: 2, Switch Memory: 1.09765625

Sketch (0) (cm: eps0: 0.03125, del0: 0.05, min_mem: 0.33984375)
Par: 1, Rows: 1
(-0.000,0)    (1.000,1)    (-0.000,2)    
Total frac: 1.000
Par: 2, Rows: 1
(0.000,2)    (1.000,1)    (-0.000,0)    
Total frac: 1.000
Par: 3, Rows: 1
(1.000,1)    (-0.000,2)    (-0.000,0)    
Total frac: 1.000

Sketch (1) (cm: eps0: 1.25e-06, del0: 0.05, min_mem: 8494.6328125)
Par: 1, Rows: 1
(0.000,1)    (0.000,0)    (1.000,2)    
Total frac: 1.000
Par: 2, Rows: 1
(0.000,2)    (1.000,0)    (0.000,1)    
Total frac: 1.000
Par: 3, Rows: 1
(1.000,2)    (0.000,1)    (0.000,0)    
Total frac: 1.000

Sketch (2) (cm: eps0: 0.625, del0: 0.025, min_mem: 0.01953125)
Par: 1, Rows: 1
(1.000,1)    (-0.000,2)    (-0.000,0)    
Total frac: 1.000
Par: 2, Rows: 1
(-0.000,0)    (0.000,2)    (1.000,1)    
Total frac: 1.000
Par: 3, Rows: 1
(0.000,2)    (-0.000,0)    (1.000,1)    
Total frac: 1.000
Par: 4, Rows: 1
(-0.000,2)    (1.000,1)    (-0.000,0)    
Total frac: 1.000

Device (0) CPU_1:
cores_sketch: 1.0, cores_dpdk: 4.0
Rows total: 1.0
Mem total: 8494.6328125
Throughput: 80.00000000000009

Device (1) P4_1:
Rows total: 7.0
Mem total: 1.09765625
Throughput: 148.0

Device (2) CPU_2:
cores_sketch: 3.0, cores_dpdk: 4.0
Rows total: 2.0
Mem total: 16989.265625
Throughput: 76.35997539739428
--------------------------------------------------
Function: MIP.solve took 0.0893094539642334 seconds
Function: solve took 0.08978962898254395 seconds
